p edge 75 555
e 1 13
e 1 17
e 1 26
e 1 27
e 1 30
e 1 44
e 1 48
e 1 58
e 1 67
e 1 68
e 1 72
e 1 73
e 2 9
e 2 16
e 2 18
e 2 24
e 2 26
e 2 30
e 2 31
e 2 32
e 2 34
e 2 42
e 2 45
e 2 55
e 2 59
e 2 62
e 2 63
e 2 68
e 2 70
e 2 72
e 3 4
e 3 10
e 3 16
e 3 29
e 3 31
e 3 36
e 3 42
e 3 48
e 3 62
e 3 71
e 3 73
e 3 74
e 3 75
e 4 6
e 4 7
e 4 8
e 4 9
e 4 16
e 4 17
e 4 22
e 4 29
e 4 32
e 4 34
e 4 35
e 4 37
e 4 40
e 4 41
e 4 46
e 4 51
e 4 52
e 4 58
e 4 59
e 4 61
e 4 63
e 4 65
e 4 69
e 4 71
e 4 75
e 5 8
e 5 10
e 5 25
e 5 27
e 5 28
e 5 30
e 5 32
e 5 43
e 5 44
e 5 48
e 5 57
e 5 59
e 5 63
e 5 65
e 6 8
e 6 10
e 6 11
e 6 12
e 6 13
e 6 20
e 6 27
e 6 37
e 6 40
e 6 42
e 6 43
e 6 52
e 6 62
e 6 64
e 6 71
e 6 75
e 7 8
e 7 10
e 7 23
e 7 44
e 7 49
e 7 52
e 7 55
e 7 56
e 7 65
e 7 67
e 8 24
e 8 31
e 8 33
e 8 36
e 8 44
e 8 46
e 8 49
e 8 51
e 8 56
e 8 63
e 8 70
e 8 71
e 8 73
e 9 13
e 9 17
e 9 21
e 9 43
e 9 48
e 9 54
e 9 55
e 9 57
e 9 65
e 9 67
e 9 74
e 10 11
e 10 25
e 10 29
e 10 30
e 10 36
e 10 48
e 10 49
e 10 60
e 10 64
e 10 65
e 10 71
e 11 19
e 11 30
e 11 32
e 11 34
e 11 36
e 11 48
e 11 51
e 11 65
e 11 69
e 11 70
e 12 15
e 12 22
e 12 32
e 12 41
e 12 43
e 12 47
e 12 48
e 12 52
e 12 53
e 12 59
e 12 60
e 12 62
e 12 64
e 12 72
e 13 14
e 13 25
e 13 33
e 13 35
e 13 39
e 13 54
e 13 55
e 13 57
e 13 60
e 13 67
e 14 19
e 14 23
e 14 28
e 14 29
e 14 33
e 14 39
e 14 40
e 14 41
e 14 42
e 14 56
e 14 65
e 15 18
e 15 25
e 15 26
e 15 27
e 15 28
e 15 29
e 15 32
e 15 36
e 15 38
e 15 39
e 15 43
e 15 47
e 15 48
e 15 50
e 15 55
e 15 61
e 15 74
e 16 21
e 16 23
e 16 37
e 16 40
e 16 42
e 16 49
e 16 50
e 16 56
e 16 57
e 16 59
e 16 63
e 16 73
e 17 26
e 17 34
e 17 36
e 17 39
e 17 45
e 17 47
e 17 50
e 17 56
e 17 59
e 17 63
e 17 73
e 17 75
e 18 23
e 18 27
e 18 28
e 18 30
e 18 31
e 18 35
e 18 48
e 18 52
e 18 55
e 18 59
e 18 62
e 18 63
e 18 64
e 19 26
e 19 28
e 19 38
e 19 39
e 19 40
e 19 41
e 19 46
e 19 49
e 19 51
e 19 59
e 19 60
e 19 68
e 19 69
e 19 73
e 20 23
e 20 27
e 20 29
e 20 35
e 20 38
e 20 45
e 20 47
e 20 53
e 20 55
e 20 56
e 20 58
e 20 68
e 20 70
e 20 73
e 20 74
e 21 24
e 21 25
e 21 27
e 21 28
e 21 33
e 21 35
e 21 44
e 21 48
e 21 49
e 21 51
e 21 55
e 21 60
e 21 70
e 21 71
e 21 72
e 22 23
e 22 29
e 22 34
e 22 37
e 22 38
e 22 46
e 22 50
e 23 24
e 23 28
e 23 44
e 23 47
e 23 49
e 23 52
e 23 53
e 23 56
e 23 57
e 23 58
e 23 70
e 23 71
e 24 25
e 24 26
e 24 27
e 24 32
e 24 47
e 24 49
e 24 56
e 24 58
e 24 64
e 24 75
e 25 29
e 25 30
e 25 33
e 25 47
e 25 50
e 25 60
e 25 65
e 25 68
e 26 28
e 26 39
e 26 40
e 26 41
e 26 42
e 26 44
e 26 46
e 26 51
e 26 58
e 27 28
e 27 31
e 27 33
e 27 34
e 27 36
e 27 38
e 27 53
e 27 62
e 28 32
e 28 35
e 28 36
e 28 42
e 28 45
e 28 46
e 28 59
e 28 73
e 29 32
e 29 42
e 29 49
e 29 50
e 29 55
e 29 56
e 29 61
e 29 74
e 29 75
e 30 34
e 30 35
e 30 39
e 30 50
e 30 60
e 30 69
e 30 70
e 31 33
e 31 40
e 31 43
e 31 54
e 31 56
e 31 57
e 31 59
e 31 61
e 31 62
e 31 66
e 31 74
e 31 75
e 32 34
e 32 38
e 32 39
e 32 46
e 32 51
e 32 54
e 32 57
e 32 62
e 32 63
e 32 68
e 32 70
e 33 35
e 33 48
e 33 49
e 33 53
e 33 64
e 33 68
e 34 40
e 34 44
e 34 45
e 34 49
e 34 53
e 34 55
e 34 57
e 34 59
e 34 68
e 34 75
e 35 46
e 35 52
e 35 57
e 35 58
e 35 61
e 35 64
e 36 39
e 36 42
e 36 43
e 36 53
e 36 55
e 36 62
e 36 67
e 36 71
e 37 38
e 37 39
e 37 40
e 37 43
e 37 62
e 37 69
e 37 73
e 37 74
e 37 75
e 38 41
e 38 47
e 38 64
e 38 70
e 39 44
e 39 53
e 39 54
e 39 58
e 39 61
e 39 75
e 40 60
e 40 62
e 40 63
e 40 67
e 41 44
e 41 46
e 41 51
e 41 55
e 41 57
e 41 59
e 41 69
e 41 73
e 41 74
e 42 47
e 42 48
e 42 54
e 42 55
e 42 56
e 42 61
e 42 66
e 42 72
e 42 73
e 43 47
e 43 50
e 43 59
e 43 61
e 43 69
e 43 73
e 44 50
e 44 55
e 44 56
e 44 58
e 44 61
e 44 65
e 44 68
e 44 69
e 44 72
e 45 48
e 45 51
e 45 52
e 45 63
e 45 70
e 45 72
e 45 75
e 46 49
e 46 57
e 46 59
e 46 60
e 46 65
e 46 69
e 46 72
e 47 58
e 47 65
e 47 70
e 47 75
e 48 57
e 48 58
e 48 66
e 48 69
e 48 70
e 48 71
e 48 73
e 49 51
e 49 53
e 49 57
e 49 60
e 49 66
e 49 69
e 49 73
e 50 52
e 50 53
e 50 61
e 50 70
e 50 71
e 50 72
e 51 52
e 51 53
e 51 64
e 51 65
e 51 66
e 52 65
e 52 70
e 52 74
e 54 62
e 55 58
e 55 61
e 56 62
e 56 64
e 57 58
e 57 63
e 57 64
e 57 70
e 58 59
e 58 68
e 58 72
e 58 73
e 58 75
e 59 62
e 59 67
e 59 74
e 60 62
e 60 64
e 60 69
e 60 74
e 61 63
e 61 71
e 61 74
e 62 65
e 63 70
e 63 72
e 64 71
e 64 74
e 65 71
e 65 75
e 67 68
e 68 73
e 69 70
e 69 71
e 71 75
